*SENSE:Minimize
NAME          MODEL
ROWS
 N  OBJ
 G  C0000000
 G  C0000001
 G  C0000002
 G  C0000003
 G  C0000004
 G  C0000005
 G  C0000006
 G  C0000007
 G  C0000008
 G  C0000009
 G  C0000010
 G  C0000011
 G  C0000012
 G  C0000013
 G  C0000014
COLUMNS
    MARK      'MARKER'                 'INTORG'
    X0000001  OBJ        1.000000000000e+00
    MARK      'MARKER'                 'INTEND'
    MARK      'MARKER'                 'INTORG'
    X0000001  OBJ        1.000000000000e+00
    MARK      'MARKER'                 'INTEND'
    MARK      'MARKER'                 'INTORG'
    X0000002  OBJ        1.000000000000e+00
    MARK      'MARKER'                 'INTEND'
    MARK      'MARKER'                 'INTORG'
    X0000003  OBJ        1.000000000000e+00
    MARK      'MARKER'                 'INTEND'
    MARK      'MARKER'                 'INTORG'
    X0000004  OBJ        1.000000000000e+00
    MARK      'MARKER'                 'INTEND'
    MARK      'MARKER'                 'INTORG'
    X0000005  OBJ        1.000000000000e+00
    MARK      'MARKER'                 'INTEND'
    MARK      'MARKER'                 'INTORG'
    X0000006  OBJ        1.000000000000e+00
    MARK      'MARKER'                 'INTEND'
    MARK      'MARKER'                 'INTORG'
    X0000007  OBJ        1.000000000000e+00
    MARK      'MARKER'                 'INTEND'
    MARK      'MARKER'                 'INTORG'
    X0000008  C0000013   1.000000000000e+00
    X0000008  C0000014   1.000000000000e+00
    X0000008  OBJ        1.000000000000e+00
    MARK      'MARKER'                 'INTEND'
    MARK      'MARKER'                 'INTORG'
    X0000009  OBJ        1.000000000000e+00
    MARK      'MARKER'                 'INTEND'
    MARK      'MARKER'                 'INTORG'
    X0000010  OBJ        1.000000000000e+00
    MARK      'MARKER'                 'INTEND'
    MARK      'MARKER'                 'INTORG'
    X0000011  OBJ        1.000000000000e+00
    MARK      'MARKER'                 'INTEND'
    MARK      'MARKER'                 'INTORG'
    X0000012  OBJ        1.000000000000e+00
    MARK      'MARKER'                 'INTEND'
    MARK      'MARKER'                 'INTORG'
    X0000013  OBJ        1.000000000000e+00
    MARK      'MARKER'                 'INTEND'
    MARK      'MARKER'                 'INTORG'
    X0000014  OBJ        1.000000000000e+00
    MARK      'MARKER'                 'INTEND'
    MARK      'MARKER'                 'INTORG'
    X0000015  OBJ        1.000000000000e+00
    MARK      'MARKER'                 'INTEND'
    MARK      'MARKER'                 'INTORG'
    X0000016  OBJ        1.000000000000e+00
    MARK      'MARKER'                 'INTEND'
    MARK      'MARKER'                 'INTORG'
    X0000017  C0000000   1.000000000000e+00
    X0000017  C0000001   1.000000000000e+00
    X0000017  C0000002   1.000000000000e+00
    X0000017  C0000003   1.000000000000e+00
    X0000017  C0000004   1.000000000000e+00
    X0000017  OBJ        1.000000000000e+00
    MARK      'MARKER'                 'INTEND'
    MARK      'MARKER'                 'INTORG'
    X0000018  C0000005   1.000000000000e+00
    X0000018  C0000006   1.000000000000e+00
    X0000018  C0000007   1.000000000000e+00
    X0000018  C0000008   1.000000000000e+00
    X0000018  C0000009   1.000000000000e+00
    X0000018  C0000010   1.000000000000e+00
    X0000018  C0000011   1.000000000000e+00
    X0000018  OBJ        1.000000000000e+00
    MARK      'MARKER'                 'INTEND'
    MARK      'MARKER'                 'INTORG'
    X0000019  OBJ        1.000000000000e+00
    MARK      'MARKER'                 'INTEND'
    MARK      'MARKER'                 'INTORG'
    X0000020  C0000005   1.000000000000e+00
    X0000020  C0000006   1.000000000000e+00
    X0000020  C0000007   1.000000000000e+00
    X0000020  C0000008   1.000000000000e+00
    X0000020  C0000009   1.000000000000e+00
    X0000020  C0000010   1.000000000000e+00
    X0000020  OBJ        1.000000000000e+00
    MARK      'MARKER'                 'INTEND'
    MARK      'MARKER'                 'INTORG'
    X0000021  C0000007   1.000000000000e+00
    X0000021  C0000008   1.000000000000e+00
    X0000021  C0000009   1.000000000000e+00
    X0000021  C0000010   1.000000000000e+00
    X0000021  C0000011   1.000000000000e+00
    X0000021  C0000012   1.000000000000e+00
    X0000021  C0000013   1.000000000000e+00
    X0000021  OBJ        1.000000000000e+00
    MARK      'MARKER'                 'INTEND'
    MARK      'MARKER'                 'INTORG'
    X0000022  C0000010   1.000000000000e+00
    X0000022  C0000011   1.000000000000e+00
    X0000022  C0000012   1.000000000000e+00
    X0000022  C0000013   1.000000000000e+00
    X0000022  C0000014   1.000000000000e+00
    X0000022  OBJ        1.000000000000e+00
    MARK      'MARKER'                 'INTEND'
RHS
    RHS       C0000000   1.000000000000e+00
    RHS       C0000001   1.000000000000e+00
    RHS       C0000002   1.000000000000e+00
    RHS       C0000003   1.000000000000e+00
    RHS       C0000004   1.000000000000e+00
    RHS       C0000005   1.000000000000e+00
    RHS       C0000006   1.000000000000e+00
    RHS       C0000007   1.000000000000e+00
    RHS       C0000008   1.000000000000e+00
    RHS       C0000009   1.000000000000e+00
    RHS       C0000010   1.000000000000e+00
    RHS       C0000011   1.000000000000e+00
    RHS       C0000012   1.000000000000e+00
    RHS       C0000013   1.000000000000e+00
    RHS       C0000014   1.000000000000e+00
BOUNDS
 BV BND       X0000001
 BV BND       X0000001
 BV BND       X0000002
 BV BND       X0000003
 BV BND       X0000004
 BV BND       X0000005
 BV BND       X0000006
 BV BND       X0000007
 BV BND       X0000008
 BV BND       X0000009
 BV BND       X0000010
 BV BND       X0000011
 BV BND       X0000012
 BV BND       X0000013
 BV BND       X0000014
 BV BND       X0000015
 BV BND       X0000016
 BV BND       X0000017
 BV BND       X0000018
 BV BND       X0000019
 BV BND       X0000020
 BV BND       X0000021
 BV BND       X0000022
ENDATA
